decision_x1=[0,2];
decision_x2=[0,2];
decision_x3=[0,2];
decision_x4=[0,2];
decision_x5=[0,2];
decision_x6=[0,2];
decision_x7=[0,2];
decision_x8=[0,2];
decision_x9=[0,2];
decision_x10=[0,2];
decision_x11=[0,2];
decision_x12=[0,2];
random_y1=[0,2];
random_y2=[0,2];
random_y3=[0,2];
random_y4=[0,2];
random_y5=[0,2];
random_y6=[0,2];
random_y7=[0,2];
random_y8=[0,2];
random_y9=[0,2];
random_y10=[0,2];
random_y11=[0,2];
random_y12=[0,2];
constraint_x2_x1=[
0,0,0.0061|
0,1,6.5|
0,2,3.3|
1,0,9.3|
1,1,0.71|
1,2,9.6|
2,0,3.9|
2,1,3.2|
2,2,2.8|
];
constraint_x3_x2=[
0,0,0.99|
0,1,8.3|
0,2,3.4|
1,0,9.3|
1,1,0.32|
1,2,8.4|
2,0,2.5|
2,1,2.1|
2,2,5.4|
];
constraint_x4_x1=[
0,0,9.3|
0,1,5.7|
0,2,8.6|
1,0,2.3|
1,1,7|
1,2,4.3|
2,0,6.9|
2,1,1.9|
2,2,6.7|
];
constraint_x5_x3=[
0,0,0.28|
0,1,1.5|
0,2,0.5|
1,0,0.87|
1,1,0.54|
1,2,8.9|
2,0,4.1|
2,1,2.5|
2,2,6.3|
];
constraint_x5_x4=[
0,0,3.2|
0,1,5.7|
0,2,2.1|
1,0,5.9|
1,1,1.7|
1,2,2.7|
2,0,1.4|
2,1,0.18|
2,2,2.8|
];
constraint_x6_x1=[
0,0,7.5|
0,1,8.9|
0,2,1.7|
1,0,8.6|
1,1,5|
1,2,1.9|
2,0,6|
2,1,5|
2,2,8.3|
];
constraint_x6_x2=[
0,0,7.5|
0,1,1.6|
0,2,2.2|
1,0,8.9|
1,1,9.9|
1,2,3.8|
2,0,0.39|
2,1,1.1|
2,2,4.6|
];
constraint_x6_x4=[
0,0,3.6|
0,1,1.3|
0,2,6.8|
1,0,6.2|
1,1,8.7|
1,2,7|
2,0,3.9|
2,1,3.4|
2,2,1.2|
];
constraint_x6_x5=[
0,0,4|
0,1,5.5|
0,2,3.4|
1,0,4.5|
1,1,2.7|
1,2,7.8|
2,0,6.6|
2,1,3.1|
2,2,2.3|
];
constraint_x7_x2=[
0,0,0.95|
0,1,6.2|
0,2,1.1|
1,0,9.4|
1,1,5|
1,2,0.85|
2,0,1.5|
2,1,8.2|
2,2,3|
];
constraint_x7_x3=[
0,0,8.5|
0,1,0.49|
0,2,7.7|
1,0,0.5|
1,1,9.4|
1,2,1.9|
2,0,2.7|
2,1,4.6|
2,2,1.2|
];
constraint_x7_x5=[
0,0,4.8|
0,1,3|
0,2,0.12|
1,0,2.5|
1,1,6.3|
1,2,0.65|
2,0,2.1|
2,1,0.32|
2,2,6.2|
];
constraint_x8_x2=[
0,0,0.75|
0,1,9.2|
0,2,1.2|
1,0,2.5|
1,1,7.3|
1,2,8.1|
2,0,7|
2,1,0.46|
2,2,5.1|
];
constraint_x8_x3=[
0,0,2.8|
0,1,5.3|
0,2,7.9|
1,0,6.7|
1,1,5.8|
1,2,5.2|
2,0,7|
2,1,9.1|
2,2,1|
];
constraint_x8_x7=[
0,0,0.96|
0,1,5.9|
0,2,0.37|
1,0,0.29|
1,1,3.5|
1,2,2.4|
2,0,2.8|
2,1,2.9|
2,2,0.91|
];
constraint_x9_x1=[
0,0,9.6|
0,1,1.7|
0,2,4.2|
1,0,6.8|
1,1,2.5|
1,2,3.2|
2,0,7.9|
2,1,7.9|
2,2,6|
];
constraint_x9_x4=[
0,0,5.9|
0,1,1.1|
0,2,5.8|
1,0,3.6|
1,1,0.91|
1,2,4.2|
2,0,0.45|
2,1,0.78|
2,2,7.4|
];
constraint_x9_x5=[
0,0,8.3|
0,1,3.3|
0,2,4.8|
1,0,1.1|
1,1,6.8|
1,2,2.4|
2,0,6.9|
2,1,5.1|
2,2,5.6|
];
constraint_x9_x6=[
0,0,4|
0,1,2.9|
0,2,5.4|
1,0,3.3|
1,1,3.5|
1,2,9|
2,0,1.5|
2,1,8|
2,2,4.2|
];
constraint_x9_x7=[
0,0,4.2|
0,1,6.9|
0,2,8.3|
1,0,4.3|
1,1,8.3|
1,2,3.2|
2,0,2.1|
2,1,5|
2,2,5.3|
];
constraint_x10_x1=[
0,0,9.1|
0,1,6.3|
0,2,7.6|
1,0,9.9|
1,1,4.8|
1,2,0.47|
2,0,9.9|
2,1,8.4|
2,2,4.6|
];
constraint_x10_x6=[
0,0,5|
0,1,7.3|
0,2,9.8|
1,0,9|
1,1,7.8|
1,2,7.5|
2,0,5.3|
2,1,5.1|
2,2,4.8|
];
constraint_x10_x8=[
0,0,0.45|
0,1,9.2|
0,2,8.5|
1,0,4.7|
1,1,1.3|
1,2,8.4|
2,0,2.3|
2,1,5.1|
2,2,8.7|
];
constraint_x10_x9=[
0,0,3.2|
0,1,8.9|
0,2,2.1|
1,0,6.9|
1,1,0.74|
1,2,4.5|
2,0,8.8|
2,1,0.84|
2,2,6.7|
];
constraint_x11_x1=[
0,0,7.9|
0,1,0.82|
0,2,8.2|
1,0,6.4|
1,1,5|
1,2,7.7|
2,0,5.6|
2,1,4.6|
2,2,3.7|
];
constraint_x11_x3=[
0,0,4.6|
0,1,1.7|
0,2,7.8|
1,0,3.5|
1,1,4.9|
1,2,2.1|
2,0,6|
2,1,0.27|
2,2,0.88|
];
constraint_x11_x4=[
0,0,5.5|
0,1,5.9|
0,2,2|
1,0,4.3|
1,1,3.7|
1,2,8.1|
2,0,8.1|
2,1,1.9|
2,2,5.4|
];
constraint_x11_x5=[
0,0,9.8|
0,1,6.8|
0,2,0.25|
1,0,6.7|
1,1,8.7|
1,2,7.2|
2,0,2|
2,1,1.6|
2,2,3|
];
constraint_x11_x8=[
0,0,2|
0,1,2.8|
0,2,5.3|
1,0,5.3|
1,1,2.9|
1,2,1.3|
2,0,7.9|
2,1,2.4|
2,2,4.1|
];
constraint_x12_x3=[
0,0,8.3|
0,1,3.4|
0,2,2.8|
1,0,2.4|
1,1,0.39|
1,2,5.7|
2,0,6.3|
2,1,1.8|
2,2,4.9|
];
constraint_x12_x4=[
0,0,0.43|
0,1,5.5|
0,2,3.7|
1,0,6.3|
1,1,5.9|
1,2,5.2|
2,0,2.1|
2,1,2.2|
2,2,8.5|
];
constraint_x12_x5=[
0,0,6.4|
0,1,2.8|
0,2,1.8|
1,0,7.1|
1,1,8|
1,2,7.5|
2,0,2.6|
2,1,6.2|
2,2,9.8|
];
constraint_x12_x11=[
0,0,8.6|
0,1,2.2|
0,2,3.7|
1,0,3.8|
1,1,8.1|
1,2,6.4|
2,0,10|
2,1,4.1|
2,2,2.5|
];
constraint_x1_y1=[
0,0,6.6|
0,1,1.1|
0,2,7.5|
1,0,8.9|
1,1,0.62|
1,2,2|
2,0,4.3|
2,1,5|
2,2,7.2|
];
constraint_x2_y2=[
0,0,6.6|
0,1,2.5|
0,2,9.6|
1,0,5|
1,1,2.7|
1,2,6.2|
2,0,4.8|
2,1,4.5|
2,2,8.8|
];
constraint_x3_y3=[
0,0,8.4|
0,1,7.3|
0,2,7.8|
1,0,2.4|
1,1,6.4|
1,2,1.2|
2,0,7.1|
2,1,3.2|
2,2,8.1|
];
constraint_x4_y4=[
0,0,7.5|
0,1,5.9|
0,2,1.3|
1,0,0.89|
1,1,5.4|
1,2,6.6|
2,0,8.2|
2,1,7.1|
2,2,4.2|
];
constraint_x5_y5=[
0,0,9|
0,1,1.8|
0,2,5.5|
1,0,4|
1,1,3.1|
1,2,3.4|
2,0,9.7|
2,1,3.3|
2,2,4.8|
];
constraint_x6_y6=[
0,0,1.9|
0,1,0.51|
0,2,7.8|
1,0,6.3|
1,1,5.3|
1,2,3|
2,0,2.3|
2,1,2.1|
2,2,2|
];
constraint_x7_y7=[
0,0,7.1|
0,1,7.4|
0,2,5.6|
1,0,0.93|
1,1,2.9|
1,2,1.3|
2,0,1.6|
2,1,9|
2,2,6.1|
];
constraint_x8_y8=[
0,0,1.3|
0,1,9.2|
0,2,8.2|
1,0,9.8|
1,1,8.7|
1,2,2.2|
2,0,6.9|
2,1,8.9|
2,2,3.9|
];
constraint_x9_y9=[
0,0,7.4|
0,1,8.5|
0,2,6.3|
1,0,0.12|
1,1,4.9|
1,2,5.5|
2,0,4.5|
2,1,4.8|
2,2,8|
];
constraint_x10_y10=[
0,0,0.29|
0,1,4.2|
0,2,4.1|
1,0,1.8|
1,1,0.03|
1,2,8|
2,0,3|
2,1,5|
2,2,9.3|
];
constraint_x11_y11=[
0,0,6.3|
0,1,6.9|
0,2,1.5|
1,0,5.3|
1,1,6.1|
1,2,6.1|
2,0,6.2|
2,1,6.1|
2,2,1.1|
];
constraint_x12_y12=[
0,0,0.75|
0,1,6.8|
0,2,9.4|
1,0,2.1|
1,1,8.1|
1,2,9.8|
2,0,6|
2,1,6.5|
2,2,5|
];
initial_distribution_y1=[0.29,0.36,0.35];
initial_distribution_y2=[0.13,0.56,0.32];
initial_distribution_y3=[0.16,0.24,0.61];
initial_distribution_y4=[0.21,0.3,0.49];
initial_distribution_y5=[0.26,0.63,0.11];
initial_distribution_y6=[0.23,0.38,0.39];
initial_distribution_y7=[0.36,0.2,0.43];
initial_distribution_y8=[0.042,0.36,0.6];
initial_distribution_y9=[0.47,0.27,0.26];
initial_distribution_y10=[0.19,0.59,0.23];
initial_distribution_y11=[0.3,0.22,0.48];
initial_distribution_y12=[0.3,0.45,0.25];
transition_y1=[
0.25,0.44,0.32|
0.31,0.43,0.26|
0.23,0.41,0.36|
];
transition_y2=[
0.076,0.61,0.31|
0.49,0.34,0.17|
0.13,0.32,0.55|
];
transition_y3=[
0.36,0.22,0.42|
0.47,0.36,0.17|
0.22,0.45,0.33|
];
transition_y4=[
0.2,0.43,0.37|
0.18,0.58,0.24|
0.53,0.28,0.2|
];
transition_y5=[
0.35,0.27,0.39|
0.46,0.47,0.074|
0.48,0.078,0.44|
];
transition_y6=[
0.26,0.3,0.45|
0.49,0.41,0.1|
0.49,0.14,0.37|
];
transition_y7=[
0.41,0.23,0.36|
0.026,0.65,0.32|
0.33,0.15,0.52|
];
transition_y8=[
0.069,0.81,0.12|
0.044,0.61,0.34|
0.32,0.35,0.32|
];
transition_y9=[
0.46,0.34,0.2|
0.19,0.47,0.35|
0.11,0.15,0.74|
];
transition_y10=[
0.29,0.65,0.052|
0.75,0.19,0.062|
0.33,0.25,0.42|
];
transition_y11=[
0.64,0.29,0.07|
0.79,0.1,0.11|
0.36,0.019,0.62|
];
transition_y12=[
0.41,0.44,0.15|
0.44,0.23,0.33|
0.43,0.52,0.042|
];
